
        $ From http://www.csplib.org/Problems/prob009/data/helmut.pdf
        $ Problem number 38
        $ Sequence length : 24
        language ESSENCE' 1.0
        letting sizemaster be 304
        letting sizes be sequence(3,4,7,12,16,20,23,24,27,28,30,32,33,36,37,44,53,57,72,76,85,99,129,175)
        